WARNING: for repeatability, setting FPU to use double precision
============================[ Problem Statistics ]=============================
|                                                                             |
|  Number of variables:           100                                         |
|  Number of clauses:             449                                         |
|  Parse time:                   0.00 s                                       |
|  Eliminated clauses:           0.00 Mb                                      |
|  Simplification time:          0.00 s                                       |
|                                                                             |
============================[ Search Statistics ]==============================
| Conflicts |          ORIGINAL         |          LEARNT          | Progress |
|           |    Vars  Clauses Literals |    Limit  Clauses Lit/Cl |          |
===============================================================================
|       100 |      99      447     1349 |      163      100      7 |  0.010 % |
|       250 |      99      447     1349 |      180      164      6 |  0.020 % |
===============================================================================
restarts              : 3
conflicts             : 340            (94366 /sec)
decisions             : 412            (0.00 % random) (114349 /sec)
propagations          : 7378           (2047738 /sec)
conflict literals     : 2025           (23.50 % deleted)
Memory used           : 13.00 MB
CPU time              : 0.003603 s

SATISFIABLE
